set VV := 0 1 2 3 4 5 ;
set VS := 0 1 2 3 4 5 6 7 8 9 10 11 12 13 14 15 16 ;
param cv := 
0 21
1 14
2 20
3 13
4 21
5 19
;
param cs := 
0 39
1 30
2 27
3 33
4 36
5 26
6 20
7 40
8 34
9 40
10 27
11 20
12 37
13 22
14 33
15 23
16 28
;
param bv:	 0 1 2 3 4 5 := 
		0 0 0 25 0 24 0 
		1 0 0 19 15 16 0 
		2 0 0 0 0 12 0 
		3 0 0 0 0 0 0 
		4 0 0 0 0 0 25 
		5 0 0 0 0 0 0 
;
param bs:	 0 1 2 3 4 5 6 7 8 9 10 11 12 13 14 15 16 := 
		0 0 0 0 0 0 0 0 33 0 0 0 0 0 0 0 0 0 
		1 0 0 0 0 0 0 0 0 0 31 0 0 25 29 0 0 0 
		2 0 0 0 0 0 0 0 0 0 0 26 0 29 0 0 0 0 
		3 0 0 0 0 0 0 0 0 27 0 0 0 0 0 0 0 0 
		4 0 0 0 0 0 0 0 0 0 0 0 0 0 0 35 0 0 
		5 0 0 0 0 0 0 0 0 0 0 0 0 27 0 0 24 0 
		6 0 0 0 0 0 0 0 0 27 0 0 0 0 0 31 0 0 
		7 33 0 0 0 0 0 0 0 0 0 35 0 0 0 0 0 0 
		8 0 0 0 27 0 0 27 0 0 0 29 0 0 0 0 0 0 
		9 0 31 0 0 0 0 0 0 0 0 0 0 0 0 0 0 0 
		10 0 0 26 0 0 0 0 35 29 0 0 0 0 0 0 0 23 
		11 0 0 0 0 0 0 0 0 0 0 0 0 24 0 0 0 0 
		12 0 25 29 0 0 27 0 0 0 0 0 24 0 0 0 0 0 
		13 0 29 0 0 0 0 0 0 0 0 0 0 0 0 0 0 0 
		14 0 0 0 0 35 0 31 0 0 0 0 0 0 0 0 0 0 
		15 0 0 0 0 0 24 0 0 0 0 0 0 0 0 0 0 0 
		16 0 0 0 0 0 0 0 0 0 0 23 0 0 0 0 0 0 
;
